WARNING: for repeatability, setting FPU to use double precision
============================[ Problem Statistics ]=============================
|                                                                             |
|  Number of variables:           100                                         |
|  Number of clauses:             449                                         |
|  Parse time:                   0.00 s                                       |
|  Eliminated clauses:           0.00 Mb                                      |
|  Simplification time:          0.00 s                                       |
|                                                                             |
============================[ Search Statistics ]==============================
| Conflicts |          ORIGINAL         |          LEARNT          | Progress |
|           |    Vars  Clauses Literals |    Limit  Clauses Lit/Cl |          |
===============================================================================
|       100 |      98      441     1328 |      161      100      6 |  0.020 % |
===============================================================================
restarts              : 2
conflicts             : 124            (28604 /sec)
decisions             : 169            (0.00 % random) (38985 /sec)
propagations          : 3181           (733795 /sec)
conflict literals     : 817            (14.27 % deleted)
Memory used           : 13.00 MB
CPU time              : 0.004335 s

SATISFIABLE
